Welcome to the CBC MILP Solver 
Version: 2.10.12 
Build Date: Aug 20 2024 

command line - /opt/homebrew/bin/cbc computational_data/lp/Reg3_n20_s1.lp seconds 10.0 solve solu computational_data/solutions/Reg3_n20_s1.sol (default strategy 1)
seconds was changed from 1e+100 to 10
Continuous objective value is 8 - 0.00 seconds
Cgl0003I 0 fixed, 0 tightened bounds, 6 strengthened rows, 0 substitutions
Cgl0003I 0 fixed, 0 tightened bounds, 6 strengthened rows, 0 substitutions
Cgl0003I 0 fixed, 0 tightened bounds, 6 strengthened rows, 0 substitutions
Cgl0004I processed model has 110 rows, 40 columns (40 integer (40 of which binary)) and 382 elements
Cutoff increment increased from 1e-05 to 0.9999
Cbc0038I Initial state - 40 integers unsatisfied sum - 8
Cbc0038I Pass   1: suminf.    8.00000 (40) obj. 8 iterations 0
Cbc0038I Pass   2: suminf.   11.00000 (22) obj. 13 iterations 56
Cbc0038I Pass   3: suminf.    2.00000 (4) obj. 13 iterations 25
Cbc0038I Pass   4: suminf.    2.00000 (4) obj. 13 iterations 9
Cbc0038I Pass   5: suminf.    0.00000 (0) obj. 13 iterations 6
Cbc0038I Solution found of 13
Cbc0038I Before mini branch and bound, 0 integers at bound fixed and 0 continuous
Cbc0038I Full problem 110 rows 40 columns, reduced to 110 rows 40 columns
Cbc0038I Mini branch and bound improved solution from 13 to 9 (0.01 seconds)
Cbc0038I Round again with cutoff of 8.00009
Cbc0038I Pass   6: suminf.    8.00000 (40) obj. 8 iterations 0
Cbc0038I Pass   7: suminf.    8.00009 (40) obj. 8.00009 iterations 1
Cbc0038I Pass   8: suminf.    8.00009 (40) obj. 8.00009 iterations 1
Cbc0038I Pass   9: suminf.    8.00009 (40) obj. 8.00009 iterations 1
Cbc0038I Pass  10: suminf.    8.00009 (40) obj. 8.00009 iterations 1
Cbc0038I Pass  11: suminf.    8.00009 (40) obj. 8.00009 iterations 1
Cbc0038I Pass  12: suminf.    8.00009 (40) obj. 8.00009 iterations 1
Cbc0038I Pass  13: suminf.    8.00009 (40) obj. 8.00009 iterations 1
Cbc0038I Pass  14: suminf.    8.00009 (40) obj. 8.00009 iterations 1
Cbc0038I Pass  15: suminf.    8.00009 (40) obj. 8.00009 iterations 1
Cbc0038I Pass  16: suminf.    8.00009 (40) obj. 8.00009 iterations 1
Cbc0038I Pass  17: suminf.    8.00009 (40) obj. 8.00009 iterations 1
Cbc0038I Pass  18: suminf.    8.00009 (40) obj. 8.00009 iterations 1
Cbc0038I Pass  19: suminf.    8.00009 (40) obj. 8.00009 iterations 1
Cbc0038I Pass  20: suminf.    8.00009 (40) obj. 8.00009 iterations 1
Cbc0038I Pass  21: suminf.    8.00009 (40) obj. 8.00009 iterations 1
Cbc0038I Pass  22: suminf.    8.00009 (40) obj. 8.00009 iterations 1
Cbc0038I Pass  23: suminf.    8.00009 (40) obj. 8.00009 iterations 1
Cbc0038I Pass  24: suminf.    8.00009 (40) obj. 8.00009 iterations 1
Cbc0038I Pass  25: suminf.    8.00009 (40) obj. 8.00009 iterations 1
Cbc0038I Pass  26: suminf.    8.00009 (40) obj. 8.00009 iterations 1
Cbc0038I Pass  27: suminf.    8.00009 (40) obj. 8.00009 iterations 1
Cbc0038I Pass  28: suminf.    8.00009 (40) obj. 8.00009 iterations 1
Cbc0038I Pass  29: suminf.    8.00009 (40) obj. 8.00009 iterations 1
Cbc0038I Pass  30: suminf.    8.00009 (40) obj. 8.00009 iterations 1
Cbc0038I Pass  31: suminf.    8.00009 (40) obj. 8.00009 iterations 1
Cbc0038I Pass  32: suminf.    8.00009 (40) obj. 8.00009 iterations 1
Cbc0038I Pass  33: suminf.    8.00009 (40) obj. 8.00009 iterations 1
Cbc0038I Pass  34: suminf.    8.00009 (40) obj. 8.00009 iterations 1
Cbc0038I Pass  35: suminf.    8.00009 (40) obj. 8.00009 iterations 1
Cbc0038I No solution found this major pass
Cbc0038I Before mini branch and bound, 0 integers at bound fixed and 0 continuous
Cbc0038I Full problem 110 rows 40 columns, reduced to 110 rows 40 columns
Cbc0038I Mini branch and bound did not improve solution (0.01 seconds)
Cbc0038I After 0.01 seconds - Feasibility pump exiting with objective of 9 - took 0.01 seconds
Cbc0012I Integer solution of 9 found by feasibility pump after 0 iterations and 0 nodes (0.01 seconds)
Cbc0031I 22 added rows had average density of 40
Cbc0013I At root node, 32 cuts changed objective from 8 to 8.4141849 in 1 passes
Cbc0014I Cut generator 0 (Probing) - 0 row cuts average 0.0 elements, 0 column cuts (0 active)  in 0.000 seconds - new frequency is -100
Cbc0014I Cut generator 1 (Gomory) - 32 row cuts average 40.0 elements, 0 column cuts (0 active)  in 0.000 seconds - new frequency is 1
Cbc0014I Cut generator 2 (Knapsack) - 0 row cuts average 0.0 elements, 0 column cuts (0 active)  in 0.000 seconds - new frequency is -100
Cbc0014I Cut generator 3 (Clique) - 0 row cuts average 0.0 elements, 0 column cuts (0 active)  in 0.000 seconds - new frequency is -100
Cbc0014I Cut generator 4 (MixedIntegerRounding2) - 0 row cuts average 0.0 elements, 0 column cuts (0 active)  in 0.000 seconds - new frequency is -100
Cbc0014I Cut generator 5 (FlowCover) - 0 row cuts average 0.0 elements, 0 column cuts (0 active)  in 0.000 seconds - new frequency is -100
Cbc0001I Search completed - best objective 9, took 33 iterations and 0 nodes (0.02 seconds)
Cbc0035I Maximum depth 0, 0 variables fixed on reduced cost
Cuts at root node changed objective from 8 to 8.41418
Probing was tried 1 times and created 0 cuts of which 0 were active after adding rounds of cuts (0.000 seconds)
Gomory was tried 1 times and created 32 cuts of which 0 were active after adding rounds of cuts (0.000 seconds)
Knapsack was tried 1 times and created 0 cuts of which 0 were active after adding rounds of cuts (0.000 seconds)
Clique was tried 1 times and created 0 cuts of which 0 were active after adding rounds of cuts (0.000 seconds)
MixedIntegerRounding2 was tried 1 times and created 0 cuts of which 0 were active after adding rounds of cuts (0.000 seconds)
FlowCover was tried 1 times and created 0 cuts of which 0 were active after adding rounds of cuts (0.000 seconds)
TwoMirCuts was tried 1 times and created 0 cuts of which 0 were active after adding rounds of cuts (0.000 seconds)
ZeroHalf was tried 1 times and created 0 cuts of which 0 were active after adding rounds of cuts (0.000 seconds)

Result - Optimal solution found

Objective value:                9.00000000
Enumerated nodes:               0
Total iterations:               33
Time (CPU seconds):             0.02
Time (Wallclock seconds):       0.02

Total time (CPU seconds):       0.02   (Wallclock seconds):       0.02

